CPXPARAM_TimeLimit                               3600
CPXPARAM_Read_DataCheck                          1
Tried aggregator 1 time.
MIP Presolve eliminated 2495 rows and 0 columns.
MIP Presolve modified 4375 coefficients.
Reduced MIP has 169385 rows, 54451 columns, and 612070 nonzeros.
Reduced MIP has 2850 binaries, 0 generals, 0 SOSs, and 0 indicators.
Presolve time = 0.15 sec. (225.70 ticks)
Found incumbent of value 12242.000000 after 0.28 sec. (389.35 ticks)
Probing fixed 0 vars, tightened 2 bounds.
Probing time = 0.04 sec. (30.58 ticks)
Tried aggregator 1 time.
Reduced MIP has 169385 rows, 54451 columns, and 612070 nonzeros.
Reduced MIP has 2850 binaries, 0 generals, 0 SOSs, and 0 indicators.
Presolve time = 0.30 sec. (305.46 ticks)
Probing time = 0.04 sec. (25.47 ticks)
MIP emphasis: balance optimality and feasibility.
MIP search method: dynamic search.
Parallel mode: deterministic, using up to 8 threads.
Root relaxation solution time = 205.74 sec. (45802.09 ticks)

        Nodes                                         Cuts/
   Node  Left     Objective  IInf  Best Integer    Best Bound    ItCnt     Gap

*     0+    0                        12242.0000     1050.0000            91.42%
      0     0     1106.7779  2512    12242.0000     1106.7779    98680   90.96%
      0     0     1111.1302  2404    12242.0000    Cuts: 1613   155685   90.92%
      0     0     1115.5586  2475    12242.0000    Cuts: 2110   243686   90.89%
      0     0     1118.2715  2394    12242.0000    Cuts: 2053   335830   90.87%
      0     0     1124.1673  2471    12242.0000    Cuts: 1935   440925   90.82%
      0     0     1125.9340  2480    12242.0000    Cuts: 2012   558363   90.80%
      0     0     1127.6217  2484    12242.0000    Cuts: 1862   635466   90.79%

Implied bound cuts applied:  336
Flow cuts applied:  650
Mixed integer rounding cuts applied:  1636
Gomory fractional cuts applied:  15

Root node processing (before b&c):
  Real time             = 3600.06 sec. (2306788.07 ticks)
Parallel b&c, 8 threads:
  Real time             =    0.00 sec. (0.00 ticks)
  Sync time (average)   =    0.00 sec.
  Wait time (average)   =    0.00 sec.
                          ------------
Total (root+branch&cut) = 3600.06 sec. (2306788.07 ticks)
